db/data/562817281354650601477847221291719649.z3.out
sat
-------------------
375.320825621
